
(set-logic ALL) 

(declare-datatype MyList ((Nil) (Cons (head Real) (tail MyList)) )) 
(declare-fun l0 () MyList) 
(declare-fun l1 () MyList) 
(declare-fun l2 () MyList) 
(declare-fun l3 () MyList) 
(declare-fun i0 () Real) 
(declare-fun i1 () Real) 
(assert (or (is-Nil l2) (= l0 Nil)) )
(assert (= l3 l0) )
(assert (is-Cons Nil) )
(assert (is-Nil Nil) )
(assert (= l1 Nil) )
(assert (and (= l1 Nil) (= l0 Nil) (= l2 Nil) (is-Cons Nil)) )
(assert (and (= l3 l1) (is-Nil l1)) )
(assert (is-Cons Nil) )
(check-sat)
